NAME: ni8_generated
TYPE: TSP
COMMENT: Generated instance
DIMENSION: 8
EDGE_WEIGHT_TYPE: EXPLICIT
EDGE_WEIGHT_FORMAT: FULL_MATRIX
EDGE_WEIGHT_SECTION
0 1000 1999 2999 3998 2999 1999 1000 
1000 0 1000 1999 2999 3998 2999 1999 
1999 1000 0 1000 1999 2999 3998 2999 
2999 1999 1000 0 1000 1999 2999 3998 
3998 2999 1999 1000 0 1000 1999 2999 
2999 3998 2999 1999 1000 0 1000 1999 
1999 2999 3998 2999 1999 1000 0 1000 
1000 1999 2999 3998 2999 1999 1000 0 
EOF
